check/benchmarks/mps_files/ex4-3.mps
NAME          ExampleMIP
ROWS
 N  OBJ
 L  C1
 L  C2
COLUMNS
    x1       OBJ        0
    x1       C1         4
    x1       C2        -3
    x2       OBJ        0
    x2       C1        -3
    x2       C2         2
    x3       OBJ        0
    x3       C1        -2
    x3       C2        -1
    y4       OBJ        0
    y4       C1         1
    y4       C2         2
    y5       OBJ        0
    y5       C1         2
    y5       C2         3
RHS
    RHS1     C1        13
    RHS1     C2        -9
BOUNDS
 LO BOUND    x1         0
 LO BOUND    x2         0
 UP BOUND    x2         3
 LO BOUND    x3         1
 UP BOUND    x3         5
 LO BOUND    y4         2
 UP BOUND    y4         4
 LO BOUND    y5         0
ENDATA
